letting n =  10
letting blocks =  [[1, 1], [1, 3], [1, 5], [1, 7], [1, 9], [1, 10], [2, 1], [2, 2], [2, 5], [2, 6], [2, 8], [2, 9], [3, 1], [3, 2], [3, 3], [3, 4], [3, 5], [3, 10], [4, 1], [4, 3], [4, 4], [4, 6], [4, 9], [4, 10], [5, 3], [5, 4], [5, 5], [5, 6], [5, 7], [5, 10], [6, 1], [6, 2], [6, 5], [6, 7], [6, 8], [6, 9], [7, 2], [7, 4], [7, 5], [7, 6], [7, 9], [7, 10], [8, 2], [8, 6], [8, 7], [8, 8], [8, 9], [9, 1], [9, 3], [9, 4], [9, 7], [9, 8], [9, 10], [10, 2], [10, 3], [10, 4], [10, 6], [10, 8]]
